1419.92
1386.62
1386.62
1386.62
1386.62
1386.62
1347.99
1347.99
1347.99
1347.99
1288.44
1288.44
1233.34
1233.34
1233.34
1233.34
1219.27
1219.27
1219.27
1219.27
1217.25
1199.37
1199.35
1199.35
1199.35
1191.8
1191.8
1191.8
1191.8
1191.8
1169.33
1169.33
1169.33
1169.33
1169.33
1169.33
1169.33
1141.33
1141.33
1141.33
1141.33
1108.7
1108.7
1108.7
1108.7
1108.7
1108.7
1108.7
1108.7
1108.7
1108.7
1108.7
1089.45
1089.45
1089.45
1089.45
1089.45
1089.45
1089.44
1076.16
1070.01
1070.01
1070.01
1070.01
1070.01
1070.01
1067.41
1067.41
1052.4
1052.4
1052.4
1052.4
1052.4
1052.4
1052.4
1052.4
1052.4
1052.4
1043.77
1043.77
1043.77
1043.77
1043.77
1031.11
1031.11
1031.11
1031.11
1031.11
1015.35
1015.35
1015.35
1015.35
1015.35
1010.58
1002.83
1002.83
1002.83
1002.83
1002.83
1002.13
